sat
(= |goto_symex::&92;guard#1| true)
(= |goto_symex::&92;guard#2| true)
(= |goto_symex::&92;guard#3| true)
(= |nondet_symex::nondet0| true)
(= |nondet_symex::nondet1| false)
(= |nondet_symex::nondet2| false)
(= |nondet_symex::nondet3| false)
(= |nondet_symex::nondet6| true)
(= |memory_model::choice_rf_1_25_0_11_T_0| false)
(= |memory_model::choice_rf_1_25_2_25_T_1| false)
(= |memory_model::choice_rf_1_25_3_16_T_2| true)
(= |memory_model::choice_rf_2_24_0_11_T_3| true)
(= |memory_model::choice_rf_2_24_1_26_T_4| false)
(= |memory_model::choice_rf_2_24_3_16_T_5| false)
(= |memory_model::choice_rf_3_15_0_11_T_6| false)
(= |memory_model::choice_rf_3_15_1_26_T_7| false)
(= |memory_model::choice_rf_3_15_2_25_T_8| true)
(= |memory_model::choice_rf_0_60_0_9_T_9| false)
(= |memory_model::choice_rf_0_60_0_56_T_10| true)
(= |memory_model::choice_rf_0_65_0_9_T_11| false)
(= |memory_model::choice_rf_0_65_0_56_T_12| false)
(= |memory_model::choice_rf_0_65_0_61_T_13| true)
(= |memory_model::choice_rf_0_72_0_37_F_14| false)
(= |memory_model::choice_rf_0_72_1_18_F_15| false)
(= |memory_model::choice_rf_0_72_2_16_F_16| false)
(= |memory_model::choice_rf_0_72_3_0_F_17| false)
(= |memory_model::choice_rf_0_72_3_12_F_18| true)
(= |memory_model::choice_rf_1_6_0_37_F_19| true)
(= |memory_model::choice_rf_1_6_0_83_F_20| false)
(= |memory_model::choice_rf_1_6_2_16_F_21| false)
(= |memory_model::choice_rf_1_6_3_0_F_22| false)
(= |memory_model::choice_rf_1_6_3_12_F_23| false)
(= |memory_model::choice_rf_2_9_0_37_F_24| false)
(= |memory_model::choice_rf_2_9_0_83_F_25| false)
(= |memory_model::choice_rf_2_9_1_18_F_26| true)
(= |memory_model::choice_rf_2_9_3_0_F_27| false)
(= |memory_model::choice_rf_2_9_3_12_F_28| false)
(= |memory_model::choice_rf_3_1_0_37_F_29| false)
(= |memory_model::choice_rf_3_1_0_83_F_30| false)
(= |memory_model::choice_rf_3_1_1_18_F_31| false)
(= |memory_model::choice_rf_3_1_2_16_F_32| false)
(= |memory_model::choice_rf_3_1_3_0_F_33| true)
(= |memory_model::choice_rf_0_69_0_12_F_34| false)
(= |memory_model::choice_rf_0_69_1_24_F_35| true)
(= |memory_model::choice_rf_0_69_2_23_F_36| false)
(= |memory_model::choice_rf_0_69_3_14_F_37| false)
(= |memory_model::choice_rf_1_23_0_12_F_38| false)
(= |memory_model::choice_rf_1_23_2_23_F_39| true)
(= |memory_model::choice_rf_1_23_3_14_F_40| false)
(= |memory_model::choice_rf_2_22_0_12_F_41| false)
(= |memory_model::choice_rf_2_22_1_24_F_42| false)
(= |memory_model::choice_rf_2_22_3_14_F_43| true)
(= |memory_model::choice_rf_3_13_0_12_F_44| true)
(= |memory_model::choice_rf_3_13_1_24_F_45| false)
(= |memory_model::choice_rf_3_13_2_23_F_46| false)
(= |memory_model::choice_rf_0_88_0_13_F_47| true)
(= |memory_model::choice_rf_0_88_1_10_F_48| false)
(= |memory_model::choice_rf_0_90_0_24_F_49| false)
(= |memory_model::choice_rf_0_90_1_14_F_50| true)
(= |memory_model::choice_rf_0_85_0_30_F_51| false)
(= |memory_model::choice_rf_0_85_2_2_F_52| true)
(= |memory_model::choice_rf_0_86_0_31_F_53| false)
(= |memory_model::choice_rf_0_86_2_10_F_54| true)
(= |memory_model::choice_rf_0_71_0_32_F_55| false)
(= |memory_model::choice_rf_0_71_0_70_F_56| true)
(= |memory_model::choice_rf_0_84_0_33_F_57| false)
(= |memory_model::choice_rf_0_95_0_33_F_58| false)
(= |memory_model::choice_rf_0_95_0_92_F_59| true)
(= |memory_model::choice_rf_0_96_0_33_F_60| false)
(= |memory_model::choice_rf_0_96_0_92_F_61| true)
(= |memory_model::choice_rf_0_77_0_40_F_62| true)
(= |memory_model::choice_rf_1_4_0_41_F_63| true)
(= |memory_model::choice_rf_2_7_0_42_F_64| true)
(= |memory_model::choice_rf_3_5_0_43_F_65| true)
(= |memory_model::choice_rf_0_76_0_44_F_66| true)
(= |memory_model::choice_rf_1_1_0_45_F_67| true)
(= |memory_model::choice_rf_2_4_0_46_F_68| true)
(= |memory_model::choice_rf_3_6_0_47_F_69| true)
(= |memory_model::choice_rf_0_75_0_50_F_70| false)
(= |memory_model::choice_rf_0_75_1_12_F_71| false)
(= |memory_model::choice_rf_0_75_2_19_F_72| true)
(= |memory_model::choice_rf_1_3_0_50_F_73| true)
(= |memory_model::choice_rf_1_3_2_19_F_74| false)
(= |memory_model::choice_rf_2_5_0_50_F_75| false)
(= |memory_model::choice_rf_2_5_1_12_F_76| true)
(= |memory_model::choice_rf_3_4_0_50_F_77| false)
(= |memory_model::choice_rf_3_4_1_12_F_78| false)
(= |memory_model::choice_rf_3_4_2_19_F_79| true)
(= |memory_model::choice_rf_0_78_0_51_F_80| false)
(= |memory_model::choice_rf_0_78_1_20_F_81| false)
(= |memory_model::choice_rf_0_78_2_14_F_82| false)
(= |memory_model::choice_rf_0_78_3_11_F_83| true)
(= |memory_model::choice_rf_1_5_0_51_F_84| true)
(= |memory_model::choice_rf_1_5_0_82_F_85| false)
(= |memory_model::choice_rf_1_5_2_14_F_86| false)
(= |memory_model::choice_rf_1_5_3_11_F_87| false)
(= |memory_model::choice_rf_2_8_0_51_F_88| false)
(= |memory_model::choice_rf_2_8_0_82_F_89| false)
(= |memory_model::choice_rf_2_8_1_20_F_90| true)
(= |memory_model::choice_rf_2_8_3_11_F_91| false)
(= |memory_model::choice_rf_3_7_0_51_F_92| false)
(= |memory_model::choice_rf_3_7_0_82_F_93| false)
(= |memory_model::choice_rf_3_7_1_20_F_94| false)
(= |memory_model::choice_rf_3_7_2_14_F_95| true)
(= |memory_model::choice_rf_0_73_0_52_F_96| false)
(= |memory_model::choice_rf_0_73_1_19_F_97| false)
(= |memory_model::choice_rf_0_73_2_15_F_98| true)
(= |memory_model::choice_rf_1_0_0_52_F_99| true)
(= |memory_model::choice_rf_1_0_2_15_F_100| false)
(= |memory_model::choice_rf_2_3_0_52_F_101| false)
(= |memory_model::choice_rf_2_3_1_19_F_102| true)
(= |memory_model::choice_rf_3_2_0_52_F_103| false)
(= |memory_model::choice_rf_3_2_1_19_F_104| false)
(= |memory_model::choice_rf_3_2_2_15_F_105| true)
(= |memory_model::choice_rf_0_74_0_53_F_106| false)
(= |memory_model::choice_rf_0_74_1_13_F_107| false)
(= |memory_model::choice_rf_0_74_2_13_F_108| false)
(= |memory_model::choice_rf_0_74_3_10_F_109| true)
(= |memory_model::choice_rf_1_2_0_53_F_110| true)
(= |memory_model::choice_rf_1_2_0_81_F_111| false)
(= |memory_model::choice_rf_1_2_2_13_F_112| false)
(= |memory_model::choice_rf_1_2_3_10_F_113| false)
(= |memory_model::choice_rf_2_6_0_53_F_114| false)
(= |memory_model::choice_rf_2_6_0_81_F_115| false)
(= |memory_model::choice_rf_2_6_1_13_F_116| true)
(= |memory_model::choice_rf_2_6_3_10_F_117| false)
(= |memory_model::choice_rf_3_3_0_53_F_118| false)
(= |memory_model::choice_rf_3_3_0_81_F_119| false)
(= |memory_model::choice_rf_3_3_1_13_F_120| false)
(= |memory_model::choice_rf_3_3_2_13_F_121| true)
(= |memory_model::choice_rf_0_87_0_54_F_122| false)
(= |memory_model::choice_rf_0_87_1_22_F_123| false)
(= |memory_model::choice_rf_0_87_2_0_F_124| true)
(= |memory_model::choice_rf_2_1_0_54_F_125| false)
(= |memory_model::choice_rf_2_1_1_22_F_126| false)
(= |memory_model::choice_rf_2_1_2_0_F_127| true)
(= |memory_model::choice_rf_0_91_0_35_F_128| false)
(= |memory_model::choice_rf_0_91_1_9_F_129| false)
(= |memory_model::choice_rf_0_89_0_2_F_130| true)
(= |memory_model::choice_ws-ext_0_11_1_26_T_131| true)
(= |memory_model::choice_ws-ext_0_11_2_25_T_132| true)
(= |memory_model::choice_ws-ext_0_11_3_16_T_133| true)
(= |memory_model::choice_ws-ext_1_26_2_25_T_134| false)
(= |memory_model::choice_ws-ext_1_26_3_16_T_135| false)
(= |memory_model::choice_ws-ext_2_25_3_16_T_136| true)
(= |memory_model::choice_ws-ext_0_37_1_18_F_137| true)
(= |memory_model::choice_ws-ext_0_37_2_16_F_138| true)
(= |memory_model::choice_ws-ext_0_37_3_0_F_139| true)
(= |memory_model::choice_ws-ext_0_37_3_12_F_140| true)
(= |memory_model::choice_ws-ext_0_83_1_18_F_141| false)
(= |memory_model::choice_ws-ext_0_83_2_16_F_142| false)
(= |memory_model::choice_ws-ext_0_83_3_0_F_143| false)
(= |memory_model::choice_ws-ext_0_83_3_12_F_144| false)
(= |memory_model::choice_ws-ext_1_18_2_16_F_145| true)
(= |memory_model::choice_ws-ext_1_18_3_0_F_146| true)
(= |memory_model::choice_ws-ext_1_18_3_12_F_147| true)
(= |memory_model::choice_ws-ext_2_16_3_0_F_148| true)
(= |memory_model::choice_ws-ext_2_16_3_12_F_149| true)
(= |memory_model::choice_ws-ext_0_12_1_24_F_150| true)
(= |memory_model::choice_ws-ext_0_12_2_23_F_151| true)
(= |memory_model::choice_ws-ext_0_12_3_14_F_152| true)
(= |memory_model::choice_ws-ext_1_24_2_23_F_153| false)
(= |memory_model::choice_ws-ext_1_24_3_14_F_154| false)
(= |memory_model::choice_ws-ext_2_23_3_14_F_155| false)
(= |memory_model::choice_ws-ext_0_13_1_10_F_156| true)
(= |memory_model::choice_ws-ext_0_93_1_10_F_157| false)
(= |memory_model::choice_ws-ext_0_24_1_14_F_158| true)
(= |memory_model::choice_ws-ext_0_25_1_7_F_159| true)
(= |memory_model::choice_ws-ext_0_30_2_2_F_160| true)
(= |memory_model::choice_ws-ext_0_31_2_10_F_161| true)
(= |memory_model::choice_ws-ext_0_38_1_15_F_162| true)
(= |memory_model::choice_ws-ext_0_38_2_18_F_163| true)
(= |memory_model::choice_ws-ext_1_15_2_18_F_164| true)
(= |memory_model::choice_ws-ext_0_39_1_17_F_165| true)
(= |memory_model::choice_ws-ext_0_39_2_17_F_166| true)
(= |memory_model::choice_ws-ext_1_17_2_17_F_167| true)
(= |memory_model::choice_ws-ext_0_41_1_16_F_168| true)
(= |memory_model::choice_ws-ext_0_42_2_12_F_169| true)
(= |memory_model::choice_ws-ext_0_43_3_9_F_170| true)
(= |memory_model::choice_ws-ext_0_45_1_21_F_171| true)
(= |memory_model::choice_ws-ext_0_46_2_11_F_172| true)
(= |memory_model::choice_ws-ext_0_47_3_8_F_173| true)
(= |memory_model::choice_ws-ext_0_50_1_12_F_174| true)
(= |memory_model::choice_ws-ext_0_50_2_19_F_175| true)
(= |memory_model::choice_ws-ext_1_12_2_19_F_176| true)
(= |memory_model::choice_ws-ext_0_51_1_20_F_177| true)
(= |memory_model::choice_ws-ext_0_51_2_14_F_178| true)
(= |memory_model::choice_ws-ext_0_51_3_11_F_179| true)
(= |memory_model::choice_ws-ext_0_82_1_20_F_180| false)
(= |memory_model::choice_ws-ext_0_82_2_14_F_181| false)
(= |memory_model::choice_ws-ext_0_82_3_11_F_182| false)
(= |memory_model::choice_ws-ext_1_20_2_14_F_183| true)
(= |memory_model::choice_ws-ext_1_20_3_11_F_184| true)
(= |memory_model::choice_ws-ext_2_14_3_11_F_185| true)
(= |memory_model::choice_ws-ext_0_52_1_19_F_186| true)
(= |memory_model::choice_ws-ext_0_52_2_15_F_187| true)
(= |memory_model::choice_ws-ext_1_19_2_15_F_188| true)
(= |memory_model::choice_ws-ext_0_53_1_13_F_189| true)
(= |memory_model::choice_ws-ext_0_53_2_13_F_190| true)
(= |memory_model::choice_ws-ext_0_53_3_10_F_191| true)
(= |memory_model::choice_ws-ext_0_81_1_13_F_192| false)
(= |memory_model::choice_ws-ext_0_81_2_13_F_193| false)
(= |memory_model::choice_ws-ext_0_81_3_10_F_194| false)
(= |memory_model::choice_ws-ext_1_13_2_13_F_195| true)
(= |memory_model::choice_ws-ext_1_13_3_10_F_196| true)
(= |memory_model::choice_ws-ext_2_13_3_10_F_197| true)
(= |memory_model::choice_ws-ext_0_54_1_22_F_198| true)
(= |memory_model::choice_ws-ext_0_54_2_0_F_199| true)
(= |memory_model::choice_ws-ext_1_22_2_0_F_200| true)
(= |memory_model::choice_ws-ext_0_34_1_8_F_201| true)
(= |memory_model::choice_ws-ext_0_34_2_21_F_202| true)
(= |memory_model::choice_ws-ext_1_8_2_21_F_203| true)
(= |memory_model::choice_ws-ext_0_35_1_9_F_204| true)
(= |memory_model::choice_ws-ext_0_94_1_9_F_205| false)
(= |memory_model::choice_ws-ext_0_36_1_11_F_206| true)
(= |memory_model::choice_ws-ext_0_36_2_20_F_207| true)
(= |memory_model::choice_ws-ext_1_11_2_20_F_208| true)
(= |main$tmp_guard0#3| #b00000001)
(= |__CPROVER_next_thread_id#3| #b00000000000000000000000000000001)
(= |__CPROVER_next_thread_id#6| #b00000000000000000000000000000010)
(= |__unbuffered_cnt#2| #b00000000000000000000000000000011)
(= |x$w_buff0_used#2| #b00000000)
(= |x$r_buff0_thd0#2| #b00000000)
(= |x$w_buff0#2| #b00000000000000000000000000000000)
(= |x$w_buff1_used#2| #b00000000)
(= |x$r_buff1_thd0#2| #b00000000)
(= |x$w_buff1#2| #b00000000000000000000000000000000)
(= |x#2| #b00000000000000000000000000000001)
(= |x#4| #b00000000000000000000000000000001)
(= |x$w_buff0_used#6| #b00000000)
(= |x$w_buff1_used#6| #b00000000)
(= |x$r_buff0_thd0#8| #b00000000)
(= |x$r_buff1_thd0#7| #b00000000)
(= |weak$$choice1#2| #b00000001)
(= |weak$$choice1#3| #b10000000)
(= |__unbuffered_p0_EAX$read_delayed#2| #b00000001)
(= |__unbuffered_p0_EAX$read_delayed_var$object#1| #b00000000000000000000000000000001)
(= |__unbuffered_p0_EAX#2| #b00000000000000000000000000000000)
(= |__unbuffered_p0_EAX#8| #b00000000000000000000000000000001)
(= |y#2| #b00000000000000000000000000000010)
(= |__unbuffered_p1_EAX#2| #b00000000000000000000000000000010)
(= |__unbuffered_p1_EBX#2| #b00000000000000000000000000000000)
(= |main$tmp_guard1#2| #b00000000)
(= |main$tmp_guard1#3| #b10000000)
(= |main$tmp_guard1#6| #b00000000)
(= |pthread_create::1::this_thread_id!1@0#0| #b00000000000000000000000000000000)
(= |x#6| #b00000000000000000000000000000000)
(= |x$w_buff0_used#11| #b00000000)
(= |x$r_buff0_thd1#2| #b00000000)
(= |x$w_buff0#4| #b00000000000000000000000000000000)
(= |x$r_buff1_thd1#2| #b00000000)
(= |x$w_buff1_used#9| #b00000000)
(= |x$w_buff1#4| #b00000000000000000000000000000000)
(= |__unbuffered_cnt#4| #b00000000000000000000000000000010)
(= |pthread_create::1::this_thread_id!2@0#0| #b00000000000000000000000000000000)
(= |y#6| #b00000000000000000000000000000010)
(= |x#10| #b00000000000000000000000000000000)
(= |x$w_buff0_used#14| #b00000000)
(= |x$r_buff0_thd2#2| #b00000000)
(= |x$w_buff1_used#12| #b00000000)
(= |x$r_buff1_thd2#2| #b00000000)
(= |x$w_buff0#7| #b00000000000000000000000000000000)
(= |x$w_buff1#7| #b00000000000000000000000000000000)
(= |__unbuffered_cnt#7| #b00000000000000000000000000000001)
(= |pthread_create::1::this_thread_id!3@0#0| #b10000000000000000000000000000000)
(= |x$w_buff0_used#17| #b00000000)
(= |x$r_buff0_thd3#2| #b00000000)
(= |x$w_buff0#10| #b00000000000000000000000000000000)
(= |x$w_buff1_used#15| #b00000000)
(= |x$r_buff1_thd3#2| #b00000000)
(= |x$w_buff1#10| #b00000000000000000000000000000000)
(= |x#15| #b00000000000000000000000000000001)
(= |__unbuffered_cnt#10| #b00000000000000000000000000000000)
(= |__CPROVER_threads_exited#1$wclk$8| #b00011110)
(= |__CPROVER_threads_exited#2$rclk$8| #b11101101)
(= |__CPROVER_threads_exited#5$wclk$8| #b10101110)
(= |__CPROVER_threads_exited#7$wclk$8| #b11101100)
(= |__CPROVER_threads_exited#4$rclk$8| #b10101101)
(= |__CPROVER_threads_exited#3$wclk$8| #b11101110)
(= |__CPROVER_threads_exited#6$rclk$8| #b11100110)
(= |x#9$wclk$8| #b01011000)
(= |x#2$rclk$8| #b11100111)
(= |x#13$wclk$8| #b01101101)
(= |x#14$wclk$8| #b10001000)
(= |x#17$wclk$8| #b10001001)
(= |x#1$wclk$8| #b01000000)
(= |x#6$rclk$8| #b01011000)
(= |x#5$wclk$8| #b11100111)
(= |x#10$rclk$8| #b01101101)
(= |x#15$rclk$8| #b10001001)
(= |__unbuffered_cnt#6$wclk$8| #b11100100)
(= |__unbuffered_cnt#2$rclk$8| #b11100101)
(= |__unbuffered_cnt#9$wclk$8| #b10101000)
(= |__unbuffered_cnt#12$wclk$8| #b10010001)
(= |__unbuffered_cnt#1$wclk$8| #b00100000)
(= |__unbuffered_cnt#4$rclk$8| #b11100100)
(= |__unbuffered_cnt#7$rclk$8| #b10101000)
(= |__unbuffered_cnt#10$rclk$8| #b10010001)
(= |__unbuffered_p0_EAX#11$wclk$8| #b01011000)
(= |__unbuffered_p0_EAX#2$rclk$8| #b11111010)
(= |__unbuffered_p0_EAX$read_delayed#4$wclk$8| #b01011000)
(= |__unbuffered_p0_EAX$read_delayed#2$rclk$8| #b11111010)
(= |__unbuffered_p1_EAX#4$wclk$8| #b01101100)
(= |__unbuffered_p1_EAX#2$rclk$8| #b11111010)
(= |__unbuffered_p1_EBX#4$wclk$8| #b01101101)
(= |__unbuffered_p1_EBX#2$rclk$8| #b11111010)
(= |main$tmp_guard1#5| #b00000000)
(= |x$r_buff0_thd1#1$wclk$8| #b01000100)
(= |x$r_buff0_thd1#2$rclk$8| #b01011000)
(= |x$r_buff0_thd2#1$wclk$8| #b01000101)
(= |x$r_buff0_thd2#2$rclk$8| #b01101101)
(= |x$r_buff0_thd3#1$wclk$8| #b01000110)
(= |x$r_buff0_thd3#2$rclk$8| #b10001001)
(= |x$r_buff1_thd1#1$wclk$8| #b01001000)
(= |x$r_buff1_thd1#2$rclk$8| #b01011000)
(= |x$r_buff1_thd2#1$wclk$8| #b01001001)
(= |x$r_buff1_thd2#2$rclk$8| #b01101101)
(= |x$r_buff1_thd3#1$wclk$8| #b01001010)
(= |x$r_buff1_thd3#2$rclk$8| #b10001001)
(= |x$w_buff0#6$wclk$8| #b01011000)
(= |x$w_buff0#2$rclk$8| #b11100111)
(= |x$w_buff0#9$wclk$8| #b01101101)
(= |x$w_buff0#1$wclk$8| #b01001101)
(= |x$w_buff0#4$rclk$8| #b01011000)
(= |x$w_buff0#7$rclk$8| #b01101101)
(= |x$w_buff0#10$rclk$8| #b10001001)
(= |x$w_buff0_used#13$wclk$8| #b01011000)
(= |x$w_buff0_used#2$rclk$8| #b11100111)
(= |x$w_buff0_used#16$wclk$8| #b01101101)
(= |x$w_buff0_used#19$wclk$8| #b10001001)
(= |x$w_buff0_used#1$wclk$8| #b01001110)
(= |x$w_buff0_used#11$rclk$8| #b01011000)
(= |x$w_buff0_used#10$wclk$8| #b11100111)
(= |x$w_buff0_used#14$rclk$8| #b01101101)
(= |x$w_buff0_used#17$rclk$8| #b10001001)
(= |x$w_buff1#6$wclk$8| #b01011000)
(= |x$w_buff1#2$rclk$8| #b11100111)
(= |x$w_buff1#9$wclk$8| #b01101101)
(= |x$w_buff1#1$wclk$8| #b01001111)
(= |x$w_buff1#4$rclk$8| #b01011000)
(= |x$w_buff1#7$rclk$8| #b01101101)
(= |x$w_buff1#10$rclk$8| #b10001001)
(= |x$w_buff1_used#11$wclk$8| #b01011000)
(= |x$w_buff1_used#2$rclk$8| #b11100111)
(= |x$w_buff1_used#14$wclk$8| #b01101101)
(= |x$w_buff1_used#17$wclk$8| #b10001001)
(= |x$w_buff1_used#1$wclk$8| #b01010000)
(= |x$w_buff1_used#9$rclk$8| #b01011000)
(= |x$w_buff1_used#8$wclk$8| #b11100111)
(= |x$w_buff1_used#12$rclk$8| #b01101101)
(= |x$w_buff1_used#15$rclk$8| #b10001001)
(= |y#4$wclk$8| #b01100011)
(= |y#2$rclk$8| #b11111010)
(= |y#5$wclk$8| #b01101011)
(= |y#1$wclk$8| #b01010001)
(= |y#6$rclk$8| #b01101100)
(= |weak$$choice1#8$wclk$8| #b01011000)
(= |weak$$choice1#3$rclk$8| #b11111010)
(= __unbuffered_p0_EAX$read_delayed_var$object #b00000000000000000000000000000001)
(= |__unbuffered_p0_EAX#1$wclk$8| #b00100001)
(= |__unbuffered_p0_EAX#10$wclk$8| #b11111010)
(= |__unbuffered_p0_EAX$read_delayed#1$wclk$8| #b00101101)
(= |__unbuffered_p0_EAX$read_delayed_var#1$wclk$8| #b00101110)
(= |__unbuffered_p0_EAX$read_delayed_var#2$wclk$8| #b01011000)
(= |__unbuffered_p1_EAX#1$wclk$8| #b00110011)
(= |__unbuffered_p1_EBX#1$wclk$8| #b00110100)
(= |x$flush_delayed#1$wclk$8| #b01000001)
(= |x$flush_delayed#3$wclk$8| #b01011000)
(= |x$flush_delayed#5$wclk$8| #b01101101)
(= |x$mem_tmp#1$wclk$8| #b01000010)
(= |x$mem_tmp#2$wclk$8| #b01011000)
(= |x$mem_tmp#3$wclk$8| #b01101101)
(= |x$r_buff0_thd1#4$wclk$8| #b01011000)
(= |x$r_buff0_thd2#4$wclk$8| #b01101101)
(= |x$r_buff0_thd3#4$wclk$8| #b10001001)
(= |x$r_buff1_thd1#4$wclk$8| #b01011000)
(= |x$r_buff1_thd2#4$wclk$8| #b01101101)
(= |x$r_buff1_thd3#4$wclk$8| #b10001001)
(= |weak$$choice0#1$wclk$8| #b00111001)
(= |weak$$choice0#2$wclk$8| #b01011000)
(= |weak$$choice0#3$wclk$8| #b01101101)
(= |weak$$choice1#1$wclk$8| #b00111010)
(= |weak$$choice1#7$wclk$8| #b11111010)
(= |weak$$choice2#1$wclk$8| #b00111011)
(= |weak$$choice2#2$wclk$8| #b01011000)
(= |weak$$choice2#3$wclk$8| #b01101101)
(= t1$58$spwnclk$8 #b01010101)
(= t1$63$spwnclk$8 #b01101010)
(= t1$68$spwnclk$8 #b01111111)
(= |main::1::t1684!0@1$wclk$8| #b00000000)
(= |main::1::t1685!0@1$wclk$8| #b00000001)
(= __unbuffered_p0_EAX$read_delayed_var$object$wclk$8 #b00000010)
(= |__CPROVER_dead_object#1$wclk$8| #b00000011)
(= |__CPROVER_deallocated#1$wclk$8| #b00000111)
(= |__CPROVER_malloc_is_new_array#1$wclk$8| #b00001000)
(= |__CPROVER_malloc_object#1$wclk$8| #b00001001)
(= |__CPROVER_malloc_size#1$wclk$8| #b00001010)
(= |__CPROVER_memory_leak#1$wclk$8| #b00001101)
(= |__CPROVER_next_thread_id#1$wclk$8| #b00001110)
(= |__CPROVER_pipe_count#1$wclk$8| #b00001111)
(= |__unbuffered_p0_EAX$flush_delayed#1$wclk$8| #b00100010)
(= |__unbuffered_p0_EAX$mem_tmp#1$wclk$8| #b00100011)
(= |__unbuffered_p0_EAX$r_buff0_thd0#1$wclk$8| #b00100100)
(= |__unbuffered_p0_EAX$r_buff0_thd1#1$wclk$8| #b00100101)
(= |__unbuffered_p0_EAX$r_buff0_thd2#1$wclk$8| #b00100110)
(= |__unbuffered_p0_EAX$r_buff0_thd3#1$wclk$8| #b00100111)
(= |__unbuffered_p0_EAX$r_buff1_thd0#1$wclk$8| #b00101000)
(= |__unbuffered_p0_EAX$r_buff1_thd1#1$wclk$8| #b00101001)
(= |__unbuffered_p0_EAX$r_buff1_thd2#1$wclk$8| #b00101010)
(= |__unbuffered_p0_EAX$r_buff1_thd3#1$wclk$8| #b00101100)
(= |__unbuffered_p0_EAX$w_buff0#1$wclk$8| #b00101111)
(= |__unbuffered_p0_EAX$w_buff0_used#1$wclk$8| #b00110000)
(= |__unbuffered_p0_EAX$w_buff1#1$wclk$8| #b00110001)
(= |__unbuffered_p0_EAX$w_buff1_used#1$wclk$8| #b00110010)
(= |main$tmp_guard0#1$wclk$8| #b00110110)
(= |main$tmp_guard1#1$wclk$8| #b00111000)
(= |x$r_buff0_thd0#1$wclk$8| #b01000011)
(= |x$r_buff1_thd0#1$wclk$8| #b01000111)
(= |x$read_delayed#1$wclk$8| #b01001011)
(= |x$read_delayed_var#1$wclk$8| #b01001100)
(= |main::1::t1683!0@1#1$wclk$8| #b01010010)
(= |__CPROVER_next_thread_id#2$wclk$8| #b01010011)
(= |main::1::t1683!0@1#2$wclk$8| #b01010100)
(= |main::1::t1684!0@1#1$wclk$8| #b01100110)
(= |__CPROVER_next_thread_id#3$rclk$8| #b01100111)
(= |__CPROVER_next_thread_id#5$wclk$8| #b01100111)
(= |main::1::t1684!0@1#2$wclk$8| #b01101001)
(= |main::1::t1685!0@1#1$wclk$8| #b01111100)
(= |__CPROVER_next_thread_id#6$rclk$8| #b01111101)
(= |__CPROVER_next_thread_id#8$wclk$8| #b01111101)
(= |main::1::t1685!0@1#2$wclk$8| #b01111110)
(= |main$tmp_guard0#2$wclk$8| #b11100101)
(= |main$tmp_guard0#3$rclk$8| #b11100110)
(= |x$r_buff1_thd0#2$rclk$8| #b11100111)
(= |x$r_buff0_thd0#2$rclk$8| #b11100111)
(= |x$r_buff1_thd0#8$wclk$8| #b11100111)
(= |x$r_buff0_thd0#10$wclk$8| #b11100111)
(= |main$tmp_guard1#3$rclk$8| #b11111010)
(= |__unbuffered_p0_EAX$read_delayed_var$object#1$rclk$8| #b11111010)
(= |main$tmp_guard1#4$wclk$8| #b11111010)
(= |main$tmp_guard1#5$rclk$8| #b11111110)
(= |main$tmp_guard1#6$rclk$8| #b11111111)
(= array_of.0 @fun_10)
(= |__CPROVER_threads_exited#2| @fun_7)
(= |__CPROVER_threads_exited#4| @fun_10)
(= |__CPROVER_threads_exited#6| @fun_11)
(function @fun_10
 (type (Array (_ BitVec 32) (_ BitVec 1)))
 (= (@fun_10 #b00000000000000000000000000000000) #b0)
 (= (@fun_10 #b10000000000000000000000000000000) #b0)
 (default #b1))
(function @fun_7
 (type (Array (_ BitVec 32) (_ BitVec 1)))
 (default #b1))
(function @fun_11
 (type (Array (_ BitVec 32) (_ BitVec 1)))
 (= (@fun_11 #b10000000000000000000000000000000) #b0)
 (default #b1))

real	0m0.021s
user	0m0.021s
sys	0m0.001s
State: AC Run_time: 0.023438215255737305